# Random Circle Problem
param d := 0.05; 
param n := 10; 
param radius := 2.00; 
param v0 := 
1 5.37
2 5.74
3 5.87
4 5.54
5 5.12
6 5.02
7 5.55
8 5.30
9 5.57
10 5.27
;
param cap := 
1 3.47833
2 3.28974
3 4.45412
4 4.64600
5 6.06994
6 6.10682
7 0.92418
8 1.69226
9 2.36301
10 2.03114
;
param x0 := 
1 2.00
2 1.62
3 0.62
4 -0.62
5 -1.62
6 -2.00
7 -1.62
8 -0.62
9 0.62
10 1.62
;
param y0 := 
1 -0.00
2 1.18
3 1.90
4 1.90
5 1.18
6 0.00
7 -1.18
8 -1.90
9 -1.90
10 -1.18
;
